units lj
dimension 3
atom_style atomic
boundary p p p

read_data data.lmp

pair_style lj/cut 2.5
pair_coeff 1 1 1.7 1.0
pair_coeff 1 2 0.1 1.0
pair_coeff 2 2 1.0 0.7

fix mynve all nve
fix mylgv all langevin 1.0 1.0 1.0 12345

dump myltr all custom 1000 data/dump10mio.lammpstrj id type xs ys zs ix iy iz
dump_modify myltr sort id format line "%d %d %.5f %.5f %.5f %d %d %d"

timestep 0.005
run 10000000
