units lj
dimension 3
atom_style atomic
boundary p p p

read_data indata.in

pair_style lj/cut 2.5
pair_coeff 1 1 1.7 1.0

fix mynve all nve
fix mylgv all langevin 2.49 2.49 ${damp} 12345

dump myltr all custom 1000 ./dump10mio.lammpstrj id type xs ys zs ix iy iz
dump_modify myltr sort id format line "%d %d %.5f %.5f %.5f %d %d %d"

timestep 0.005
run 2000000
