units lj
dimension 3
atom_style atomic
boundary p p p

read_data indata.in

pair_style ring/cg 20.0 
pair_coeff 1 1 0.66137 3.70835 1.65043 5.97298 1.04549 5.99383
pair_coeff 1 2 1.85398225 -0.57551401 5.54223696 1.72481501 2.46254749 5.32023192
pair_coeff 2 2 2.65724733 0.96180336 1.63649287 2.28247361 2.29616516 2.88817213

fix mynve all nve
fix mylgv all langevin 1.0 1.0 100 12345

dump myltr all custom 1000 dump.lammpstrj id type xs ys zs ix iy iz
dump_modify myltr sort id format line "%d %d %.5f %.5f %.5f %d %d %d"

write_restart restart.re
timestep 0.01
run 100000
