units lj
dimension 3
atom_style atomic
boundary p p p

read_data indata.in

pair_style ring/cg 20.0 
pair_coeff 1 1 -6.58204409 -8.42927522 9.75657746  8.45336962  -6.45205662



fix mynve all nve
fix mylgv all langevin 1.0 1.0 1.0 12345

dump myltr all custom 1000 dump.lammpstrj id type xs ys zs ix iy iz
dump_modify myltr sort id format line "%d %d %.5f %.5f %.5f %d %d %d"

timestep 0.005
run 2000000
