units lj
dimension 3
atom_style atomic
boundary p p p

read_data data.lmp

pair_style table linear 1000
pair_coeff 1 1 table_potential_11.dat first_line_of_file
pair_coeff 1 2 table_potential_11.dat first_line_of_file
pair_coeff 2 2 table_potential_11.dat first_line_of_file

fix mynve all nve
fix mylgv all langevin 1.0 1.0 1.0 12345

dump myltr all custom 10000 data/dump10mio.lammpstrj id type xs ys zs ix iy iz
dump_modify myltr sort id format line "%d %d %.5f %.5f %.5f %d %d %d"

timestep 0.005
run 10000000
